RT is False
Default write of storage_offers_DA.csv just to have a file (but constraint should be inactive)
Reading model...
...model read.
creating competitive generators file...
...competitive generators recorded.
Loading data...
.. day-ahead data with real-time VRE data read.
Compiling instance...
...instance created.
Creating Offer Mitigation (model will solve as dispatch if TRUE)...
NOTE: storage offers will not be mitigated
...storage offer mitigation file created
Converting model to MPEC...
...converted
NOTE: initial MIP solve with only storage competitive to get feasible solution
Solving...

Welcome to IBM(R) ILOG(R) CPLEX(R) Interactive Optimizer 12.8.0.0
  with Simplex, Mixed Integer & Barrier Optimizers
5725-A06 5725-A29 5724-Y48 5724-Y49 5724-Y54 5724-Y55 5655-Y21
Copyright IBM Corp. 1988, 2017.  All Rights Reserved.

Type 'help' for a list of available commands.
Type 'help' followed by a command name for more
information on commands.

CPLEX> Logfile 'cplex.log' closed.
Logfile 'C:\Users\llavi\Desktop\test919\logs\tmprxqz41tu.cplex.log' open.
CPLEX> New value for parallel optimization mode: -1
CPLEX> New value for mixed integer optimality gap tolerance: 0.01
CPLEX> New value for integrality tolerance: 1e-09
CPLEX> New value for feasibility tolerance: 0.01
CPLEX> New value for deterministic time limit in ticks: 75000
CPLEX> Problem 'C:\Users\llavi\Desktop\test919\logs\tmpu17b4l0r.pyomo.lp' read.
Read time = 0.28 sec. (13.50 ticks)
CPLEX> Problem name         : C:\Users\llavi\Desktop\test919\logs\tmpu17b4l0r.pyomo.lp
Objective sense      : Maximize
Variables            :   54021  [Nneg: 1,  Box: 22008,  Free: 4464,
                                 Binary: 27548]
Objective nonzeros   :    8980
Linear constraints   :  123829  [Less: 41554,  Greater: 59512,  Equal: 22763]
  Nonzeros           :  300593
  RHS nonzeros       :   67901

Variables            : Min LB: -5000.000        Max UB: 1000000.       
Objective nonzeros   : Min   : 0.05000000       Max   : 722.0000       
Linear constraints   :
  Nonzeros           : Min   : 0.001000000      Max   : 1000000.       
  RHS nonzeros       : Min   : 0.05000000       Max   : 1000000.       
CPLEX> CPXPARAM_Simplex_Tolerances_Feasibility          0.01
CPXPARAM_Parallel                                -1
CPXPARAM_DetTimeLimit                            75000
CPXPARAM_MIP_Tolerances_MIPGap                   0.01
CPXPARAM_MIP_Tolerances_Integrality              1.0000000000000001e-09
Tried aggregator 3 times.
MIP Presolve eliminated 89339 rows and 19231 columns.
MIP Presolve added 3395 rows and 0 columns.
MIP Presolve modified 23841 coefficients.
Aggregator did 13027 substitutions.
Reduced MIP has 24858 rows, 21207 columns, and 70973 nonzeros.
Reduced MIP has 8387 binaries, 0 generals, 0 SOSs, and 0 indicators.
Presolve time = 0.25 sec. (169.82 ticks)
Probing fixed 394 vars, tightened 2840 bounds.
Probing time = 3.09 sec. (907.82 ticks)
Tried aggregator 2 times.
MIP Presolve eliminated 884 rows and 788 columns.
MIP Presolve modified 2190 coefficients.
Aggregator did 46 substitutions.
Reduced MIP has 23928 rows, 20373 columns, and 68279 nonzeros.
Reduced MIP has 7993 binaries, 0 generals, 0 SOSs, and 0 indicators.
Presolve time = 0.14 sec. (54.39 ticks)
Probing time = 0.06 sec. (15.66 ticks)
Clique table members: 6361.
MIP emphasis: balance optimality and feasibility.
MIP search method: dynamic search.
Parallel mode: opportunistic, using up to 4 threads.
Root relaxation solution time = 0.67 sec. (579.68 ticks)

        Nodes                                         Cuts/
   Node  Left     Objective  IInf  Best Integer    Best Bound    ItCnt     Gap

      0     0      309.8490   910                    309.8490     5041         
      0     0      309.7683    47                    Cuts: 53     5068         
      0     0      309.7683    42                    Cuts: 27     5075         
      0     0      309.7683    39                     Cuts: 6     5077         
      0     0      309.7683    38                     Cuts: 4     5078         
      0     4      291.4974    11                    309.7683     5083         
Elapsed time = 14.17 sec. (5260.94 ticks, tree = 0.04 MB, solutions = 0)
     74    58      255.5316     4                    307.3286     6341         
    113    70      239.7004     2                    307.3286     6442         
*   136+   75                         -333.2572      307.3286           192.22%
    180    73       80.7311     2     -333.2572      307.3286     6655  192.22%
    231   105       53.3368     1     -333.2572      307.3286     6848  192.22%
    280   138       45.2565     1     -333.2572      307.3286     7146  192.22%
    331   188      -44.9727     1     -333.2572      307.3286     7363  192.22%
    380   169        cutoff           -333.2572      307.3286     7301  192.22%
    435   215      211.0171     1     -333.2572      307.3286     7514  192.22%
    645   362       77.1512     1     -333.2572      307.3286     8248  192.22%
Elapsed time = 19.09 sec. (8332.03 ticks, tree = 3.57 MB, solutions = 1)
    851   483      207.1544     2     -333.2572      307.3286     8842  192.22%
   1036   659       44.6053     1     -333.2572      275.2072     9807  182.58%
   1268   377        cutoff            137.6361      258.1298    10858   87.55%
*  1296   345      integral     0      255.5316      258.1298    10832    1.02%

Cover cuts applied:  1
Implied bound cuts applied:  8
Flow cuts applied:  25
Mixed integer rounding cuts applied:  1
Gomory fractional cuts applied:  18

Root node processing (before b&c):
  Real time             =   13.91 sec. (5220.57 ticks)
Parallel b&c, 4 threads:
  Real time             =    9.97 sec. (6444.37 ticks)
  Sync time (average)   =    0.29 sec.
  Wait time (average)   =    0.02 sec.
                          ------------
Total (root+branch&cut) =   23.88 sec. (11664.94 ticks)

Solution pool: 3 solutions saved.

MIP - Integer optimal solution:  Objective =  2.5553155183e+02
Solution time =   23.88 sec.  Iterations = 12126  Nodes = 1368
Deterministic time = 11665.09 ticks  (488.59 ticks/sec)

CPLEX> Incumbent solution written to file 'C:\Users\llavi\Desktop\test919\logs\tmpxfnkwwxn.cplex.sol'.
CPLEX> NOTE: no warmstart specified for MIP iteration, default behavior is true
NOTE: resolving with all competitive generators using storage-only solution to warmstart
Solving...

Welcome to IBM(R) ILOG(R) CPLEX(R) Interactive Optimizer 12.8.0.0
  with Simplex, Mixed Integer & Barrier Optimizers
5725-A06 5725-A29 5724-Y48 5724-Y49 5724-Y54 5724-Y55 5655-Y21
Copyright IBM Corp. 1988, 2017.  All Rights Reserved.

Type 'help' for a list of available commands.
Type 'help' followed by a command name for more
information on commands.

CPLEX> Logfile 'cplex.log' closed.
Logfile 'C:\Users\llavi\Desktop\test919\logs\tmp88_4s1m3.cplex.log' open.
CPLEX> New value for parallel optimization mode: -1
CPLEX> New value for mixed integer optimality gap tolerance: 0.01
CPLEX> New value for integrality tolerance: 1e-09
CPLEX> New value for feasibility tolerance: 0.01
CPLEX> New value for deterministic time limit in ticks: 75000
CPLEX> Problem 'C:\Users\llavi\Desktop\test919\logs\tmp1__ke7rv.pyomo.lp' read.
Read time = 0.23 sec. (13.52 ticks)
CPLEX> MIP start file 'C:\Users\llavi\Desktop\test919\logs\tmp4t340swk.cplex.mst' read.
CPLEX> Problem name         : C:\Users\llavi\Desktop\test919\logs\tmp1__ke7rv.pyomo.lp
Objective sense      : Maximize
Variables            :   54741  [Nneg: 1,  Box: 22728,  Free: 4464,
                                 Binary: 27548]
Objective nonzeros   :    9700
Linear constraints   :  123829  [Less: 41554,  Greater: 59512,  Equal: 22763]
  Nonzeros           :  300593
  RHS nonzeros       :   67901

Variables            : Min LB: -5000.000        Max UB: 1000000.       
Objective nonzeros   : Min   : 0.05000000       Max   : 722.0000       
Linear constraints   :
  Nonzeros           : Min   : 0.001000000      Max   : 1000000.       
  RHS nonzeros       : Min   : 0.05000000       Max   : 1000000.       
CPLEX> CPXPARAM_Simplex_Tolerances_Feasibility          0.01
CPXPARAM_Parallel                                -1
CPXPARAM_DetTimeLimit                            75000
CPXPARAM_MIP_Tolerances_MIPGap                   0.01
CPXPARAM_MIP_Tolerances_Integrality              1.0000000000000001e-09
Warning:  No solution found from 1 MIP starts.
Retaining values of one MIP start for possible repair.
Tried aggregator 3 times.
MIP Presolve eliminated 89339 rows and 19951 columns.
MIP Presolve added 3395 rows and 0 columns.
MIP Presolve modified 23841 coefficients.
Aggregator did 13027 substitutions.
Reduced MIP has 24858 rows, 21207 columns, and 70973 nonzeros.
Reduced MIP has 8387 binaries, 0 generals, 0 SOSs, and 0 indicators.
Presolve time = 0.30 sec. (170.19 ticks)
Probing fixed 394 vars, tightened 2840 bounds.
Probing time = 3.09 sec. (907.82 ticks)
Tried aggregator 2 times.
MIP Presolve eliminated 884 rows and 788 columns.
MIP Presolve modified 2190 coefficients.
Aggregator did 46 substitutions.
Reduced MIP has 23928 rows, 20373 columns, and 68279 nonzeros.
Reduced MIP has 7993 binaries, 0 generals, 0 SOSs, and 0 indicators.
Presolve time = 0.14 sec. (54.38 ticks)
Probing time = 0.06 sec. (15.66 ticks)
Clique table members: 6361.
MIP emphasis: balance optimality and feasibility.
MIP search method: dynamic search.
Parallel mode: opportunistic, using up to 4 threads.
Root relaxation solution time = 0.63 sec. (636.78 ticks)

        Nodes                                         Cuts/
   Node  Left     Objective  IInf  Best Integer    Best Bound    ItCnt     Gap

      0     0      309.8490   957                    309.8490     5222         
      0     0      309.7683    53                    Cuts: 39     5241         
      0     0      309.7683    44                    Cuts: 29     5250         
      0     0      309.7683    43                     Cuts: 4     5251         
      0     0      309.7683    22                 Flowcuts: 1     5251         
Repair heuristic found nothing.
      0     4      225.8309    21                    309.7683     5254         
Elapsed time = 22.27 sec. (8096.80 ticks, tree = 0.03 MB, solutions = 0)
     77    35      225.5839    12                    307.3286     6255         
    160   110      222.9856     2                    307.3286     6473         
    215   150      103.2814     1                    307.3286     6596         
    261   179       87.7566     1                    307.3286     7193         
*   308+   92                           36.1561      307.3286           750.00%
    388    90      222.9856     1       36.1561      307.3286     8468  750.00%
    453   125       53.9029     1       36.1561      270.1587     8585  647.20%
    516   163       47.7633     1       36.1561      270.1587     8824  647.20%
    584   205      167.3804     1       36.1561      258.1298     9076  613.93%
    854   372      254.4609     1       36.1561      258.1298     9883  613.93%
Elapsed time = 27.72 sec. (11190.00 ticks, tree = 2.78 MB, solutions = 1)
   1113   534        cutoff             36.1561      258.1298    10638  613.93%
   1271   629      255.5316     1       36.1561      258.1298    11190  613.93%
   1405   690        cutoff             36.1561      258.1298    11572  613.93%
   1471   689      254.4609     1       36.1561      258.1298    11560  613.93%
   1642   721       95.3508     1       36.1561      258.1298    11906  613.93%
   1842   720      255.5316     2       36.1561      255.5316    11831  606.74%
   1999   891        cutoff             36.1561      255.5316    12766  606.74%
   2082   942        cutoff             36.1561      255.5316    13090  606.74%
   2135   948        cutoff             36.1561      255.5316    13168  606.74%
   2183   953      254.4648     1       36.1561      255.5316    13201  606.74%
Elapsed time = 45.64 sec. (20778.81 ticks, tree = 7.66 MB, solutions = 1)
   2226   957       79.1748     1       36.1561      255.5316    13242  606.74%
   2287   962        cutoff             36.1561      255.5316    13321  606.74%
   2401   969      251.1133     3       36.1561      255.5316    13396  606.74%
   2573   987      254.4609     3       36.1561      255.5316    13688  606.74%
   2855  1108       44.9256     6       36.1561      255.5316    14442  606.74%
   3130  1274      108.7786     5       36.1561      254.4648    15451  603.79%
   3349  1411        cutoff             36.1561      254.4648    16213  603.79%
   3539  1422        cutoff             36.1561      254.4648    16541  603.79%
   3628  1452      128.9732     2       36.1561      254.4648    16853  603.79%
   3662  1503    infeasible             36.1561      229.2402    23387  534.03%
Elapsed time = 69.22 sec. (32232.63 ticks, tree = 13.68 MB, solutions = 1)
   4044   110       85.2239     8       36.1561      222.7314    24349  516.03%
   4313   245       97.1503     3       36.1561      217.2991    25190  501.00%
   4702   385       61.4738     8       36.1561      180.9921    26133  400.58%
   5089   563       75.4192    22       36.1561       98.0483    27331  171.18%
   5320   652       97.1503     1       36.1561       97.1503    27836  168.70%
   5543   763        cutoff             36.1561       97.1503    28575  168.70%
   5798   765       77.3232     1       36.1561       97.1503    28605  168.70%
   5986   845       77.3232     1       36.1561       97.1503    29144  168.70%
   6114   868       97.1503     1       36.1561       97.1503    29343  168.70%
   6234   892       97.1503     1       36.1561       97.1503    29683  168.70%
Elapsed time = 88.53 sec. (41842.99 ticks, tree = 5.03 MB, solutions = 1)
   6314   934       77.3232     1       36.1561       97.1503    29880  168.70%
   6405   940       92.3560     1       36.1561       97.1503    30055  168.70%
   6492   936       77.3232     1       36.1561       97.1503    29932  168.70%
   6573   979       90.7848     1       36.1561       97.1503    30336  168.70%
   6715   981       72.5289     1       36.1561       97.1503    30440  168.70%
   6897  1033       90.7848     1       36.1561       97.1503    30938  168.70%
   7037  1091       97.1503     1       36.1561       97.1503    31475  168.70%
   7154  1098        cutoff             36.1561       97.1503    31496  168.70%
   7315  1109        cutoff             36.1561       97.1503    31607  168.70%
   7420  1110        cutoff             36.1561       97.1503    31611  168.70%
Elapsed time = 103.97 sec. (51465.32 ticks, tree = 6.36 MB, solutions = 1)
   7567  1168       74.8836     3       36.1561       97.1503    32079  168.70%
   7773  1217        cutoff             36.1561       97.1503    32501  168.70%
   7894  1261       86.0276     1       36.1561       97.1503    32896  168.70%
   7981  1277       72.5289     1       36.1561       97.1503    32957  168.70%
   8061  1315       97.1503     1       36.1561       97.1503    33244  168.70%
   8168  1300        cutoff             36.1561       97.1503    33160  168.70%
   8260  1353       86.0276     1       36.1561       97.1503    33538  168.70%
   8338  1354       97.1503     1       36.1561       97.1503    33592  168.70%
   8404  1359       94.7107     5       36.1561       97.1503    33608  168.70%
   8535  1390        cutoff             36.1561       97.1503    33880  168.70%
Elapsed time = 118.50 sec. (61091.08 ticks, tree = 7.91 MB, solutions = 1)
   8698  1421       74.2742     4       36.1561       97.1503    34168  168.70%
   8842  1449       77.3232     1       36.1561       97.1503    34472  168.70%
   9055  1471       61.4330    11       36.1561       97.1503    34603  168.70%
   9182  1511        cutoff             36.1561       97.1503    34972  168.70%
   9238  1599       94.7107     4       36.1561       97.1503    35785  168.70%
   9316  1543        cutoff             36.1561       97.1503    35295  168.70%
   9357  1592       97.1503     1       36.1561       97.1503    35752  168.70%
   9467  1601        cutoff             36.1561       97.1503    35879  168.70%
   9603  1604        cutoff             36.1561       97.1503    35912  168.70%
   9699  1656       94.7107     1       36.1561       97.1503    36259  168.70%
Elapsed time = 131.81 sec. (70900.88 ticks, tree = 9.90 MB, solutions = 1)
   9830  1726       97.1503     1       36.1561       97.1503    36880  168.70%
   9953  1757       94.7107     9       36.1561       97.1503    37227  168.70%
  10163  1822       94.7107    11       36.1561       97.1503    37725  168.70%
  10302  1823        cutoff             36.1561       97.1503    37758  168.70%

Clique cuts applied:  2
Cover cuts applied:  6
Implied bound cuts applied:  1
Flow cuts applied:  12
Mixed integer rounding cuts applied:  11
Gomory fractional cuts applied:  15

Root node processing (before b&c):
  Real time             =   22.03 sec. (8060.62 ticks)
Parallel b&c, 4 threads:
  Real time             =  114.69 sec. (67111.31 ticks)
  Sync time (average)   =    0.46 sec.
  Wait time (average)   =    0.03 sec.
                          ------------
Total (root+branch&cut) =  136.72 sec. (75171.94 ticks)

Solution pool: 1 solution saved.

MIP - Deterministic time limit exceeded, integer feasible:  Objective =  3.6156139658e+01
Current MIP best bound =  9.7150311581e+01 (gap = 60.9942, 168.70%)
Solution time =  136.72 sec.  Iterations = 38426  Nodes = 10311 (1882)
Deterministic time = 75172.09 ticks  (549.83 ticks/sec)

CPLEX> Incumbent solution written to file 'C:\Users\llavi\Desktop\test919\logs\tmpmlzn8ach.cplex.sol'.
CPLEX> Exporting results... 
